Route #1: 1 23 16 10 12 29 17 20 7 13 2 1 
Route #2: 1 1 9 15 30 11 19 32 1 
Route #3: 1 22 5 14 4 24 27 34 1 
Route #4: 1 26 18 3 6 31 8 25 21 1 
Route #5: 1 28 33 1 

Cost 998.491
Time 0.1581


 * Another infos *

 Iterations: 35 Time: 0.1581 sec - 0.0026 min - 0.0000 horas
0.0000 h 0.0026 min
Problem dimension: 35
